10
20
403435
0
0
2 1 62 45 31 34 258 13 76 17 242 43 12 20 17 44 64 83 52 43
1
0
8 2 0 32 16 27 75 23 7 16 18 19 61 35 73 29 99 75 252 27
2
0
39 18 12 171 3 24 19 292 24 21 3 71 44 20 276 46 11 6 36 30
3
0
8 9 25 14 35 8 148 41 52 141 7 82 35 11 70 31 58 23 4 149
4
0
29 12 0 14 74 17 110 132 110 39 85 52 31 265 103 61 63 87 16 2
5
0
21 0 14 10 207 66 24 3 0 43 12 44 45 45 69 150 11 26 5 73
6
0
5 38 3 170 70 76 5 36 108 6 92 8 73 61 27 65 23 25 53 56
7
0
62 54 26 105 57 37 64 29 147 16 57 35 3 4 0 15 209 86 55 100
8
0
0 62 41 103 52 16 33 1 91 39 53 10 6 129 78 6 21 3 142 18
9
0
8 111 18 9 117 9 0 81 31 9 108 6 97 6 23 55 31 113 152 48
